(set-logic QF_NRA)
(declare-fun v0 () Real)
(declare-fun th0 () Real)
(declare-fun zp_0_0 () Real)
(declare-fun zq_0_0 () Real)
(declare-fun zp_0_3 () Real)
(declare-fun zq_0_3 () Real)
(declare-fun v1 () Real)
(declare-fun th1 () Real)
(declare-fun zp_1_1 () Real)
(declare-fun zq_1_1 () Real)
(declare-fun zp_1_2 () Real)
(declare-fun zq_1_2 () Real)
(declare-fun v2 () Real)
(declare-fun th2 () Real)
(declare-fun zp_2_2 () Real)
(declare-fun zq_2_2 () Real)
(declare-fun v3 () Real)
(declare-fun th3 () Real)
(declare-fun v4 () Real)
(declare-fun zp_3_3 () Real)
(declare-fun zq_3_3 () Real)
(declare-fun th4 () Real)
(declare-fun zp_4_4 () Real)
(declare-fun zq_4_4 () Real)
(declare-fun zp_2_9 () Real)
(declare-fun zq_2_9 () Real)
(declare-fun zp_3_6 () Real)
(declare-fun zq_3_6 () Real)
(declare-fun zp_4_9 () Real)
(declare-fun zq_4_9 () Real)
(declare-fun v5 () Real)
(declare-fun th5 () Real)
(declare-fun zp_5_5 () Real)
(declare-fun zq_5_5 () Real)
(declare-fun zp_5_6 () Real)
(declare-fun zq_5_6 () Real)
(declare-fun v6 () Real)
(declare-fun th6 () Real)
(declare-fun zp_6_6 () Real)
(declare-fun zq_6_6 () Real)
(declare-fun zp_7_7 () Real)
(declare-fun zq_7_7 () Real)
(declare-fun zp_8_8 () Real)
(declare-fun zq_8_8 () Real)
(declare-fun v9 () Real)
(declare-fun th9 () Real)
(declare-fun zp_9_9 () Real)
(declare-fun zq_9_9 () Real)
(assert (<= v0 2))
(assert (>= v0 0))
(assert (<= th0 4))
(assert (>= th0 -4))
(assert (<= zp_0_0 3))
(assert (>= zp_0_0 -3))
(assert (<= zq_0_0 3))
(assert (>= zq_0_0 -3))
(assert (<= zp_0_3 3))
(assert (>= zp_0_3 -3))
(assert (<= zq_0_3 3))
(assert (>= zq_0_3 -3))
(assert (<= v1 2))
(assert (>= v1 0))
(assert (<= th1 4))
(assert (>= th1 -4))
(assert (<= zp_1_1 3))
(assert (>= zp_1_1 -3))
(assert (<= zq_1_1 3))
(assert (>= zq_1_1 -3))
(assert (<= zp_1_2 3))
(assert (>= zp_1_2 -3))
(assert (<= zq_1_2 3))
(assert (>= zq_1_2 -3))
(assert (<= v2 2))
(assert (>= v2 0))
(assert (<= th2 4))
(assert (>= th2 -4))
(assert (<= zp_2_2 3))
(assert (>= zp_2_2 -3))
(assert (<= zq_2_2 3))
(assert (>= zq_2_2 -3))
(assert (<= v3 2))
(assert (>= v3 0))
(assert (<= th3 4))
(assert (>= th3 -4))
(assert (<= v4 2))
(assert (>= v4 0))
(assert (<= zp_3_3 3))
(assert (>= zp_3_3 -3))
(assert (<= zq_3_3 3))
(assert (>= zq_3_3 -3))
(assert (<= th4 4))
(assert (>= th4 -4))
(assert (<= zp_4_4 3))
(assert (>= zp_4_4 -3))
(assert (<= zq_4_4 3))
(assert (>= zq_4_4 -3))
(assert (<= zp_2_9 3))
(assert (>= zp_2_9 -3))
(assert (<= zq_2_9 3))
(assert (>= zq_2_9 -3))
(assert (<= zp_3_6 3))
(assert (>= zp_3_6 -3))
(assert (<= zq_3_6 3))
(assert (>= zq_3_6 -3))
(assert (<= zp_4_9 3))
(assert (>= zp_4_9 -3))
(assert (<= zq_4_9 3))
(assert (>= zq_4_9 -3))
(assert (<= v5 2))
(assert (>= v5 0))
(assert (<= th5 4))
(assert (>= th5 -4))
(assert (<= zp_5_5 3))
(assert (>= zp_5_5 -3))
(assert (<= zq_5_5 3))
(assert (>= zq_5_5 -3))
(assert (<= zp_5_6 3))
(assert (>= zp_5_6 -3))
(assert (<= zq_5_6 3))
(assert (>= zq_5_6 -3))
(assert (<= v6 2))
(assert (>= v6 0))
(assert (<= th6 4))
(assert (>= th6 -4))
(assert (<= zp_6_6 3))
(assert (>= zp_6_6 -3))
(assert (<= zq_6_6 3))
(assert (>= zq_6_6 -3))
(assert (<= zp_7_7 3))
(assert (>= zp_7_7 -3))
(assert (<= zq_7_7 3))
(assert (>= zq_7_7 -3))
(assert (<= zp_8_8 3))
(assert (>= zp_8_8 -3))
(assert (<= zq_8_8 3))
(assert (>= zq_8_8 -3))
(assert (<= v9 2))
(assert (>= v9 0))
(assert (<= th9 4))
(assert (>= th9 -4))
(assert (<= zp_9_9 3))
(assert (>= zp_9_9 -3))
(assert (<= zq_9_9 3))
(assert (>= zq_9_9 -3))
(assert (and (and (and (and (and (and (and (and (and (and (and (and (and (and (and (and true (and (= zp_0_0 (* v0 (+ 0 (* v3 (- (- 0 (* 0.019679 (cos (- th0 th3)))) (* 0.189884 (sin (- th0 th3)))))))) (= zq_0_0 (* v0 (+ 0 (* v3 (- (* 0.189884 (cos (- th0 th3))) (* 0.019679 (sin (- th0 th3)))))))))) (and (= zp_0_3 (- (- (* (^ v0 2) 0.019679) (* v0 (* v3 (* 0.019679 (cos (- th0 th3)))))) (* v0 (* v3 (* 0.189884 (sin (- th0 th3))))))) (= zq_0_3 (- (- (- 0 (* (^ v0 2) 0.019679)) (* v0 (* v3 (* 0.189884 (cos (- th0 th3)))))) (* v0 (* v3 (* 0.019679 (sin (- th0 th3))))))))) (and (= zp_1_1 (* v1 (+ 0 (* v2 (- (- 0 (* 0.199167 (cos (- th1 th2)))) (* 0.126733 (sin (- th1 th2)))))))) (= zq_1_1 (* v1 (+ 0 (* v2 (- (* 0.126733 (cos (- th1 th2))) (* 0.199167 (sin (- th1 th2)))))))))) (and (= zp_1_2 (- (- (* (^ v1 2) 0.199167) (* v1 (* v2 (* 0.199167 (cos (- th1 th2)))))) (* v1 (* v2 (* 0.126733 (sin (- th1 th2))))))) (= zq_1_2 (- (- (- 0 (* (^ v1 2) 0.199167)) (* v1 (* v2 (* 0.126733 (cos (- th1 th2)))))) (* v1 (* v2 (* 0.199167 (sin (- th1 th2))))))))) (and (= zp_2_2 (* v2 (+ (+ 0 (* v1 (- (- 0 (* 0.199167 (cos (- th2 th1)))) (* 0.126733 (sin (- th2 th1)))))) (* v9 (- (- 0 (* 0.188884 (cos (- th2 th9)))) (* 0.182856 (sin (- th2 th9)))))))) (= zq_2_2 (* v2 (+ (+ 0 (* v1 (- (* 0.126733 (cos (- th2 th1))) (* 0.199167 (sin (- th2 th1)))))) (* v9 (- (* 0.182856 (cos (- th2 th9))) (* 0.188884 (sin (- th2 th9)))))))))) (and (= zp_2_9 (- (- (* (^ v2 2) 0.188884) (* v2 (* v9 (* 0.188884 (cos (- th2 th9)))))) (* v2 (* v9 (* 0.182856 (sin (- th2 th9))))))) (= zq_2_9 (- (- (- 0 (* (^ v2 2) 0.188884)) (* v2 (* v9 (* 0.182856 (cos (- th2 th9)))))) (* v2 (* v9 (* 0.188884 (sin (- th2 th9))))))))) (and (= zp_3_3 (* v3 (+ (+ 0 (* v0 (- (- 0 (* 0.019679 (cos (- th3 th0)))) (* 0.189884 (sin (- th3 th0)))))) (* v6 (- (- 0 (* 0.153156 (cos (- th3 th6)))) (* 0.113287 (sin (- th3 th6)))))))) (= zq_3_3 (* v3 (+ (+ 0 (* v0 (- (* 0.189884 (cos (- th3 th0))) (* 0.019679 (sin (- th3 th0)))))) (* v6 (- (* 0.113287 (cos (- th3 th6))) (* 0.153156 (sin (- th3 th6)))))))))) (and (= zp_3_6 (- (- (* (^ v3 2) 0.153156) (* v3 (* v6 (* 0.153156 (cos (- th3 th6)))))) (* v3 (* v6 (* 0.113287 (sin (- th3 th6))))))) (= zq_3_6 (- (- (- 0 (* (^ v3 2) 0.153156)) (* v3 (* v6 (* 0.113287 (cos (- th3 th6)))))) (* v3 (* v6 (* 0.153156 (sin (- th3 th6))))))))) (and (= zp_4_4 (* v4 (+ 0 (* v9 (- (- 0 (* 0.082490 (cos (- th4 th9)))) (* 0.188378 (sin (- th4 th9)))))))) (= zq_4_4 (* v4 (+ 0 (* v9 (- (* 0.188378 (cos (- th4 th9))) (* 0.082490 (sin (- th4 th9)))))))))) (and (= zp_4_9 (- (- (* (^ v4 2) 0.082490) (* v4 (* v9 (* 0.082490 (cos (- th4 th9)))))) (* v4 (* v9 (* 0.188378 (sin (- th4 th9))))))) (= zq_4_9 (- (- (- 0 (* (^ v4 2) 0.082490)) (* v4 (* v9 (* 0.188378 (cos (- th4 th9)))))) (* v4 (* v9 (* 0.082490 (sin (- th4 th9))))))))) (and (= zp_5_5 (* v5 (+ 0 (* v6 (- (- 0 (* 0.196571 (cos (- th5 th6)))) (* 0.088632 (sin (- th5 th6)))))))) (= zq_5_5 (* v5 (+ 0 (* v6 (- (* 0.088632 (cos (- th5 th6))) (* 0.196571 (sin (- th5 th6)))))))))) (and (= zp_5_6 (- (- (* (^ v5 2) 0.196571) (* v5 (* v6 (* 0.196571 (cos (- th5 th6)))))) (* v5 (* v6 (* 0.088632 (sin (- th5 th6))))))) (= zq_5_6 (- (- (- 0 (* (^ v5 2) 0.196571)) (* v5 (* v6 (* 0.088632 (cos (- th5 th6)))))) (* v5 (* v6 (* 0.196571 (sin (- th5 th6))))))))) (and (= zp_6_6 (* v6 (+ (+ 0 (* v3 (- (- 0 (* 0.153156 (cos (- th6 th3)))) (* 0.113287 (sin (- th6 th3)))))) (* v5 (- (- 0 (* 0.196571 (cos (- th6 th5)))) (* 0.088632 (sin (- th6 th5)))))))) (= zq_6_6 (* v6 (+ (+ 0 (* v3 (- (* 0.113287 (cos (- th6 th3))) (* 0.153156 (sin (- th6 th3)))))) (* v5 (- (* 0.088632 (cos (- th6 th5))) (* 0.196571 (sin (- th6 th5)))))))))) (and (= zp_7_7 0.000000) (= zq_7_7 0.000000))) (and (= zp_8_8 0.000000) (= zq_8_8 0.000000))) (and (= zp_9_9 (* v9 (+ (+ 0 (* v2 (- (- 0 (* 0.188884 (cos (- th9 th2)))) (* 0.182856 (sin (- th9 th2)))))) (* v4 (- (- 0 (* 0.082490 (cos (- th9 th4)))) (* 0.188378 (sin (- th9 th4)))))))) (= zq_9_9 (* v9 (+ (+ 0 (* v2 (- (* 0.182856 (cos (- th9 th2))) (* 0.188884 (sin (- th9 th2)))))) (* v4 (- (* 0.188378 (cos (- th9 th4))) (* 0.082490 (sin (- th9 th4)))))))))))
(check-sat)
(exit)
